(set-logic QF_BV)

(declare-const __ESBMC_ptr_obj_start_0 (_ BitVec 64))

(declare-const __ESBMC_ptr_obj_end_0 (_ BitVec 64))

(declare-const __ESBMC_ptr_obj_start_1 (_ BitVec 64))

(declare-const __ESBMC_ptr_obj_end_1 (_ BitVec 64))

(declare-const |smt_conv::__ESBMC_ptr_addr_range_0..start0| (_ BitVec 64))

(declare-const |smt_conv::__ESBMC_ptr_addr_range_0..end0| (_ BitVec 64))

(declare-const |smt_conv::__ESBMC_ptr_addr_range_1..start0| (_ BitVec 64))

(declare-const |smt_conv::__ESBMC_ptr_addr_range_1..end0| (_ BitVec 64))

(declare-const |smt_conv::smt_conv::collate_array_vals::3..start0| (_ BitVec 64))

(declare-const |smt_conv::smt_conv::collate_array_vals::3..end0| (_ BitVec 64))

(declare-const |smt_conv::smt_conv::collate_array_vals::4..start0| (_ BitVec 64))

(declare-const |smt_conv::smt_conv::collate_array_vals::4..end0| (_ BitVec 64))

(declare-const |smt_conv::smt_conv::collate_array_vals::7..start0| (_ BitVec 64))

(declare-const |smt_conv::smt_conv::collate_array_vals::7..end0| (_ BitVec 64))

(declare-const |c:ChawdharyCookGulwaniSagivYang-ESOP2008-random1d.c@285@F@main@max?1!0&0#1| (_ BitVec 32))

(declare-const |nondet$symex::nondet5882| (_ BitVec 32))

(declare-const |goto_symex::guard?0!0&0#1| (_ BitVec 1))

(declare-const |goto_symex::guard?0!0&0#2| (_ BitVec 1))

(declare-const |goto_symex::guard?0!0&0#4| (_ BitVec 1))

(declare-const |goto_symex::guard?0!0&0#6| (_ BitVec 1))

(declare-const |goto_symex::guard?0!0&0#8| (_ BitVec 1))

(declare-const |goto_symex::guard?0!0&0#10| (_ BitVec 1))

(declare-const |goto_symex::guard?0!0&0#12| (_ BitVec 1))

(declare-const |goto_symex::guard?0!0&0#14| (_ BitVec 1))

(declare-const |goto_symex::guard?0!0&0#16| (_ BitVec 1))

(declare-const |goto_symex::guard?0!0&0#18| (_ BitVec 1))

(declare-const |goto_symex::guard?0!0&0#20| (_ BitVec 1))

(declare-const |goto_symex::guard?0!0&0#22| (_ BitVec 1))

(declare-const |goto_symex::guard?0!0&0#24| (_ BitVec 1))

(declare-const |goto_symex::guard?0!0&0#26| (_ BitVec 1))

(declare-const |goto_symex::guard?0!0&0#28| (_ BitVec 1))

(declare-const |goto_symex::guard?0!0&0#30| (_ BitVec 1))

(declare-const |goto_symex::guard?0!0&0#32| (_ BitVec 1))

(declare-const |goto_symex::guard?0!0&0#34| (_ BitVec 1))

(declare-const |goto_symex::guard?0!0&0#36| (_ BitVec 1))

(declare-const |goto_symex::guard?0!0&0#38| (_ BitVec 1))

(declare-const |goto_symex::guard?0!0&0#40| (_ BitVec 1))

(declare-const |goto_symex::guard?0!0&0#42| (_ BitVec 1))

(declare-const |goto_symex::guard?0!0&0#44| (_ BitVec 1))

(declare-const |goto_symex::guard?0!0&0#46| (_ BitVec 1))

(declare-const |goto_symex::guard?0!0&0#48| (_ BitVec 1))

(declare-const |goto_symex::guard?0!0&0#50| (_ BitVec 1))

(declare-const |goto_symex::guard?0!0&0#52| (_ BitVec 1))

(declare-const |goto_symex::guard?0!0&0#54| (_ BitVec 1))

(declare-const |goto_symex::guard?0!0&0#56| (_ BitVec 1))

(declare-const |goto_symex::guard?0!0&0#58| (_ BitVec 1))

(declare-const |goto_symex::guard?0!0&0#60| (_ BitVec 1))

(declare-const |goto_symex::guard?0!0&0#62| (_ BitVec 1))

(declare-const |goto_symex::guard?0!0&0#64| (_ BitVec 1))

(declare-const |goto_symex::guard?0!0&0#66| (_ BitVec 1))

(declare-const |goto_symex::guard?0!0&0#68| (_ BitVec 1))

(declare-const |goto_symex::guard?0!0&0#70| (_ BitVec 1))

(declare-const |goto_symex::guard?0!0&0#72| (_ BitVec 1))

(declare-const |goto_symex::guard?0!0&0#74| (_ BitVec 1))

(declare-const |goto_symex::guard?0!0&0#76| (_ BitVec 1))

(declare-const |goto_symex::guard?0!0&0#78| (_ BitVec 1))

(declare-const |goto_symex::guard?0!0&0#80| (_ BitVec 1))

(declare-const |goto_symex::guard?0!0&0#82| (_ BitVec 1))

(declare-const |goto_symex::guard?0!0&0#84| (_ BitVec 1))

(declare-const |goto_symex::guard?0!0&0#86| (_ BitVec 1))

(declare-const |goto_symex::guard?0!0&0#88| (_ BitVec 1))

(declare-const |goto_symex::guard?0!0&0#90| (_ BitVec 1))

(declare-const |goto_symex::guard?0!0&0#92| (_ BitVec 1))

(declare-const |goto_symex::guard?0!0&0#94| (_ BitVec 1))

(declare-const |goto_symex::guard?0!0&0#96| (_ BitVec 1))

(declare-const |goto_symex::guard?0!0&0#98| (_ BitVec 1))

(declare-const |goto_symex::guard?0!0&0#100| (_ BitVec 1))

(declare-const |goto_symex::guard?0!0&0#102| (_ BitVec 1))

(declare-const |goto_symex::guard?0!0&0#104| (_ BitVec 1))

(declare-const |goto_symex::guard?0!0&0#106| (_ BitVec 1))

(declare-const |goto_symex::guard?0!0&0#108| (_ BitVec 1))

(declare-const |goto_symex::guard?0!0&0#110| (_ BitVec 1))

(declare-const |goto_symex::guard?0!0&0#112| (_ BitVec 1))

(declare-const |goto_symex::guard?0!0&0#114| (_ BitVec 1))

(declare-const |goto_symex::guard?0!0&0#116| (_ BitVec 1))

(declare-const |goto_symex::guard?0!0&0#118| (_ BitVec 1))

(declare-const |goto_symex::guard?0!0&0#120| (_ BitVec 1))

(declare-const |goto_symex::guard?0!0&0#122| (_ BitVec 1))

(declare-const |goto_symex::guard?0!0&0#124| (_ BitVec 1))

(declare-const |goto_symex::guard?0!0&0#126| (_ BitVec 1))

(declare-const |goto_symex::guard?0!0&0#128| (_ BitVec 1))

(declare-const |goto_symex::guard?0!0&0#130| (_ BitVec 1))

(declare-const |goto_symex::guard?0!0&0#132| (_ BitVec 1))

(declare-const |goto_symex::guard?0!0&0#134| (_ BitVec 1))

(declare-const |goto_symex::guard?0!0&0#136| (_ BitVec 1))

(declare-const |goto_symex::guard?0!0&0#138| (_ BitVec 1))

(declare-const |goto_symex::guard?0!0&0#140| (_ BitVec 1))

(declare-const |goto_symex::guard?0!0&0#142| (_ BitVec 1))

(declare-const |goto_symex::guard?0!0&0#144| (_ BitVec 1))

(declare-const |goto_symex::guard?0!0&0#146| (_ BitVec 1))

(declare-const |goto_symex::guard?0!0&0#148| (_ BitVec 1))

(declare-const |goto_symex::guard?0!0&0#150| (_ BitVec 1))

(declare-const |goto_symex::guard?0!0&0#152| (_ BitVec 1))

(declare-const |goto_symex::guard?0!0&0#154| (_ BitVec 1))

(declare-const |goto_symex::guard?0!0&0#156| (_ BitVec 1))

(declare-const |goto_symex::guard?0!0&0#158| (_ BitVec 1))

(declare-const |goto_symex::guard?0!0&0#160| (_ BitVec 1))

(declare-const |goto_symex::guard?0!0&0#162| (_ BitVec 1))

(declare-const |goto_symex::guard?0!0&0#164| (_ BitVec 1))

(declare-const |goto_symex::guard?0!0&0#166| (_ BitVec 1))

(declare-const |goto_symex::guard?0!0&0#168| (_ BitVec 1))

(declare-const |goto_symex::guard?0!0&0#170| (_ BitVec 1))

(declare-const |goto_symex::guard?0!0&0#172| (_ BitVec 1))

(declare-const |goto_symex::guard?0!0&0#174| (_ BitVec 1))

(declare-const |goto_symex::guard?0!0&0#176| (_ BitVec 1))

(declare-const |goto_symex::guard?0!0&0#178| (_ BitVec 1))

(declare-const |goto_symex::guard?0!0&0#180| (_ BitVec 1))

(declare-const |goto_symex::guard?0!0&0#182| (_ BitVec 1))

(declare-const |goto_symex::guard?0!0&0#184| (_ BitVec 1))

(declare-const |goto_symex::guard?0!0&0#186| (_ BitVec 1))

(declare-const |goto_symex::guard?0!0&0#188| (_ BitVec 1))

(declare-const |goto_symex::guard?0!0&0#190| (_ BitVec 1))

(declare-const |goto_symex::guard?0!0&0#192| (_ BitVec 1))

(declare-const |goto_symex::guard?0!0&0#194| (_ BitVec 1))

(declare-const |goto_symex::guard?0!0&0#196| (_ BitVec 1))

(declare-const |goto_symex::guard?0!0&0#198| (_ BitVec 1))

(declare-const |goto_symex::guard?0!0&0#200| (_ BitVec 1))

(declare-const |goto_symex::guard?0!0&0#202| (_ BitVec 1))

(declare-const |goto_symex::guard?0!0&0#204| (_ BitVec 1))

(declare-const |goto_symex::guard?0!0&0#206| (_ BitVec 1))

(declare-const |goto_symex::guard?0!0&0#208| (_ BitVec 1))

(declare-const |goto_symex::guard?0!0&0#210| (_ BitVec 1))

(declare-const |goto_symex::guard?0!0&0#212| (_ BitVec 1))

(declare-const |execution_statet::guard_exec?0!0| (_ BitVec 1))

(assert 

 (= __ESBMC_ptr_obj_start_0 #b0000000000000000000000000000000000000000000000000000000000000000))

(assert 

 (= #b0000000000000000000000000000000000000000000000000000000000000000 __ESBMC_ptr_obj_end_0))

(assert 

 (= __ESBMC_ptr_obj_start_1 #b0000000000000000000000000000000000000000000000000000000000000001))

(assert 

 (= #b1111111111111111111111111111111111111111111111111111111111111111 __ESBMC_ptr_obj_end_1))

(assert 

 (= __ESBMC_ptr_obj_end_0 |smt_conv::__ESBMC_ptr_addr_range_0..end0|))

(assert 

 (= __ESBMC_ptr_obj_start_0 |smt_conv::__ESBMC_ptr_addr_range_0..start0|))

(assert 

 (= __ESBMC_ptr_obj_end_1 |smt_conv::__ESBMC_ptr_addr_range_1..end0|))

(assert 

 (= __ESBMC_ptr_obj_start_1 |smt_conv::__ESBMC_ptr_addr_range_1..start0|))

(assert 

 (= |smt_conv::smt_conv::collate_array_vals::3..end0| |smt_conv::smt_conv::collate_array_vals::4..end0|))

(assert 

 (= |smt_conv::smt_conv::collate_array_vals::3..start0| |smt_conv::smt_conv::collate_array_vals::4..start0|))

(assert 

 (= __ESBMC_ptr_obj_end_0 |smt_conv::smt_conv::collate_array_vals::7..end0|))

(assert 

 (= __ESBMC_ptr_obj_start_0 |smt_conv::smt_conv::collate_array_vals::7..start0|))

(assert 

 (= |c:ChawdharyCookGulwaniSagivYang-ESOP2008-random1d.c@285@F@main@max?1!0&0#1| |nondet$symex::nondet5882|))

(assert 

 (= |goto_symex::guard?0!0&0#1| 

  (ite 

   (bvslt #b00000000000000000000000000000000 |c:ChawdharyCookGulwaniSagivYang-ESOP2008-random1d.c@285@F@main@max?1!0&0#1|) #b1 #b0)))

(assert 

 (= |goto_symex::guard?0!0&0#2| 

  (bvnot 

   (ite 

    (bvslt |c:ChawdharyCookGulwaniSagivYang-ESOP2008-random1d.c@285@F@main@max?1!0&0#1| #b00000000000000000000000000000001) #b1 #b0))))

(assert 

 (= |goto_symex::guard?0!0&0#4| 

  (bvnot 

   (ite 

    (bvslt |c:ChawdharyCookGulwaniSagivYang-ESOP2008-random1d.c@285@F@main@max?1!0&0#1| #b00000000000000000000000000000010) #b1 #b0))))

(assert 

 (= |goto_symex::guard?0!0&0#6| 

  (bvnot 

   (ite 

    (bvslt |c:ChawdharyCookGulwaniSagivYang-ESOP2008-random1d.c@285@F@main@max?1!0&0#1| #b00000000000000000000000000000011) #b1 #b0))))

(assert 

 (= |goto_symex::guard?0!0&0#8| 

  (bvnot 

   (ite 

    (bvslt |c:ChawdharyCookGulwaniSagivYang-ESOP2008-random1d.c@285@F@main@max?1!0&0#1| #b00000000000000000000000000000100) #b1 #b0))))

(assert 

 (= |goto_symex::guard?0!0&0#10| 

  (bvnot 

   (ite 

    (bvslt |c:ChawdharyCookGulwaniSagivYang-ESOP2008-random1d.c@285@F@main@max?1!0&0#1| #b00000000000000000000000000000101) #b1 #b0))))

(assert 

 (= |goto_symex::guard?0!0&0#12| 

  (bvnot 

   (ite 

    (bvslt |c:ChawdharyCookGulwaniSagivYang-ESOP2008-random1d.c@285@F@main@max?1!0&0#1| #b00000000000000000000000000000110) #b1 #b0))))

(assert 

 (= |goto_symex::guard?0!0&0#14| 

  (bvnot 

   (ite 

    (bvslt |c:ChawdharyCookGulwaniSagivYang-ESOP2008-random1d.c@285@F@main@max?1!0&0#1| #b00000000000000000000000000000111) #b1 #b0))))

(assert 

 (= |goto_symex::guard?0!0&0#16| 

  (bvnot 

   (ite 

    (bvslt |c:ChawdharyCookGulwaniSagivYang-ESOP2008-random1d.c@285@F@main@max?1!0&0#1| #b00000000000000000000000000001000) #b1 #b0))))

(assert 

 (= |goto_symex::guard?0!0&0#18| 

  (bvnot 

   (ite 

    (bvslt |c:ChawdharyCookGulwaniSagivYang-ESOP2008-random1d.c@285@F@main@max?1!0&0#1| #b00000000000000000000000000001001) #b1 #b0))))

(assert 

 (= |goto_symex::guard?0!0&0#20| 

  (bvnot 

   (ite 

    (bvslt |c:ChawdharyCookGulwaniSagivYang-ESOP2008-random1d.c@285@F@main@max?1!0&0#1| #b00000000000000000000000000001010) #b1 #b0))))

(assert 

 (= |goto_symex::guard?0!0&0#22| 

  (bvnot 

   (ite 

    (bvslt |c:ChawdharyCookGulwaniSagivYang-ESOP2008-random1d.c@285@F@main@max?1!0&0#1| #b00000000000000000000000000001011) #b1 #b0))))

(assert 

 (= |goto_symex::guard?0!0&0#24| 

  (bvnot 

   (ite 

    (bvslt |c:ChawdharyCookGulwaniSagivYang-ESOP2008-random1d.c@285@F@main@max?1!0&0#1| #b00000000000000000000000000001100) #b1 #b0))))

(assert 

 (= |goto_symex::guard?0!0&0#26| 

  (bvnot 

   (ite 

    (bvslt |c:ChawdharyCookGulwaniSagivYang-ESOP2008-random1d.c@285@F@main@max?1!0&0#1| #b00000000000000000000000000001101) #b1 #b0))))

(assert 

 (= |goto_symex::guard?0!0&0#28| 

  (bvnot 

   (ite 

    (bvslt |c:ChawdharyCookGulwaniSagivYang-ESOP2008-random1d.c@285@F@main@max?1!0&0#1| #b00000000000000000000000000001110) #b1 #b0))))

(assert 

 (= |goto_symex::guard?0!0&0#30| 

  (bvnot 

   (ite 

    (bvslt |c:ChawdharyCookGulwaniSagivYang-ESOP2008-random1d.c@285@F@main@max?1!0&0#1| #b00000000000000000000000000001111) #b1 #b0))))

(assert 

 (= |goto_symex::guard?0!0&0#32| 

  (bvnot 

   (ite 

    (bvslt |c:ChawdharyCookGulwaniSagivYang-ESOP2008-random1d.c@285@F@main@max?1!0&0#1| #b00000000000000000000000000010000) #b1 #b0))))

(assert 

 (= |goto_symex::guard?0!0&0#34| 

  (bvnot 

   (ite 

    (bvslt |c:ChawdharyCookGulwaniSagivYang-ESOP2008-random1d.c@285@F@main@max?1!0&0#1| #b00000000000000000000000000010001) #b1 #b0))))

(assert 

 (= |goto_symex::guard?0!0&0#36| 

  (bvnot 

   (ite 

    (bvslt |c:ChawdharyCookGulwaniSagivYang-ESOP2008-random1d.c@285@F@main@max?1!0&0#1| #b00000000000000000000000000010010) #b1 #b0))))

(assert 

 (= |goto_symex::guard?0!0&0#38| 

  (bvnot 

   (ite 

    (bvslt |c:ChawdharyCookGulwaniSagivYang-ESOP2008-random1d.c@285@F@main@max?1!0&0#1| #b00000000000000000000000000010011) #b1 #b0))))

(assert 

 (= |goto_symex::guard?0!0&0#40| 

  (bvnot 

   (ite 

    (bvslt |c:ChawdharyCookGulwaniSagivYang-ESOP2008-random1d.c@285@F@main@max?1!0&0#1| #b00000000000000000000000000010100) #b1 #b0))))

(assert 

 (= |goto_symex::guard?0!0&0#42| 

  (bvnot 

   (ite 

    (bvslt |c:ChawdharyCookGulwaniSagivYang-ESOP2008-random1d.c@285@F@main@max?1!0&0#1| #b00000000000000000000000000010101) #b1 #b0))))

(assert 

 (= |goto_symex::guard?0!0&0#44| 

  (bvnot 

   (ite 

    (bvslt |c:ChawdharyCookGulwaniSagivYang-ESOP2008-random1d.c@285@F@main@max?1!0&0#1| #b00000000000000000000000000010110) #b1 #b0))))

(assert 

 (= |goto_symex::guard?0!0&0#46| 

  (bvnot 

   (ite 

    (bvslt |c:ChawdharyCookGulwaniSagivYang-ESOP2008-random1d.c@285@F@main@max?1!0&0#1| #b00000000000000000000000000010111) #b1 #b0))))

(assert 

 (= |goto_symex::guard?0!0&0#48| 

  (bvnot 

   (ite 

    (bvslt |c:ChawdharyCookGulwaniSagivYang-ESOP2008-random1d.c@285@F@main@max?1!0&0#1| #b00000000000000000000000000011000) #b1 #b0))))

(assert 

 (= |goto_symex::guard?0!0&0#50| 

  (bvnot 

   (ite 

    (bvslt |c:ChawdharyCookGulwaniSagivYang-ESOP2008-random1d.c@285@F@main@max?1!0&0#1| #b00000000000000000000000000011001) #b1 #b0))))

(assert 

 (= |goto_symex::guard?0!0&0#52| 

  (bvnot 

   (ite 

    (bvslt |c:ChawdharyCookGulwaniSagivYang-ESOP2008-random1d.c@285@F@main@max?1!0&0#1| #b00000000000000000000000000011010) #b1 #b0))))

(assert 

 (= |goto_symex::guard?0!0&0#54| 

  (bvnot 

   (ite 

    (bvslt |c:ChawdharyCookGulwaniSagivYang-ESOP2008-random1d.c@285@F@main@max?1!0&0#1| #b00000000000000000000000000011011) #b1 #b0))))

(assert 

 (= |goto_symex::guard?0!0&0#56| 

  (bvnot 

   (ite 

    (bvslt |c:ChawdharyCookGulwaniSagivYang-ESOP2008-random1d.c@285@F@main@max?1!0&0#1| #b00000000000000000000000000011100) #b1 #b0))))

(assert 

 (= |goto_symex::guard?0!0&0#58| 

  (bvnot 

   (ite 

    (bvslt |c:ChawdharyCookGulwaniSagivYang-ESOP2008-random1d.c@285@F@main@max?1!0&0#1| #b00000000000000000000000000011101) #b1 #b0))))

(assert 

 (= |goto_symex::guard?0!0&0#60| 

  (bvnot 

   (ite 

    (bvslt |c:ChawdharyCookGulwaniSagivYang-ESOP2008-random1d.c@285@F@main@max?1!0&0#1| #b00000000000000000000000000011110) #b1 #b0))))

(assert 

 (= |goto_symex::guard?0!0&0#62| 

  (bvnot 

   (ite 

    (bvslt |c:ChawdharyCookGulwaniSagivYang-ESOP2008-random1d.c@285@F@main@max?1!0&0#1| #b00000000000000000000000000011111) #b1 #b0))))

(assert 

 (= |goto_symex::guard?0!0&0#64| 

  (bvnot 

   (ite 

    (bvslt |c:ChawdharyCookGulwaniSagivYang-ESOP2008-random1d.c@285@F@main@max?1!0&0#1| #b00000000000000000000000000100000) #b1 #b0))))

(assert 

 (= |goto_symex::guard?0!0&0#66| 

  (bvnot 

   (ite 

    (bvslt |c:ChawdharyCookGulwaniSagivYang-ESOP2008-random1d.c@285@F@main@max?1!0&0#1| #b00000000000000000000000000100001) #b1 #b0))))

(assert 

 (= |goto_symex::guard?0!0&0#68| 

  (bvnot 

   (ite 

    (bvslt |c:ChawdharyCookGulwaniSagivYang-ESOP2008-random1d.c@285@F@main@max?1!0&0#1| #b00000000000000000000000000100010) #b1 #b0))))

(assert 

 (= |goto_symex::guard?0!0&0#70| 

  (bvnot 

   (ite 

    (bvslt |c:ChawdharyCookGulwaniSagivYang-ESOP2008-random1d.c@285@F@main@max?1!0&0#1| #b00000000000000000000000000100011) #b1 #b0))))

(assert 

 (= |goto_symex::guard?0!0&0#72| 

  (bvnot 

   (ite 

    (bvslt |c:ChawdharyCookGulwaniSagivYang-ESOP2008-random1d.c@285@F@main@max?1!0&0#1| #b00000000000000000000000000100100) #b1 #b0))))

(assert 

 (= |goto_symex::guard?0!0&0#74| 

  (bvnot 

   (ite 

    (bvslt |c:ChawdharyCookGulwaniSagivYang-ESOP2008-random1d.c@285@F@main@max?1!0&0#1| #b00000000000000000000000000100101) #b1 #b0))))

(assert 

 (= |goto_symex::guard?0!0&0#76| 

  (bvnot 

   (ite 

    (bvslt |c:ChawdharyCookGulwaniSagivYang-ESOP2008-random1d.c@285@F@main@max?1!0&0#1| #b00000000000000000000000000100110) #b1 #b0))))

(assert 

 (= |goto_symex::guard?0!0&0#78| 

  (bvnot 

   (ite 

    (bvslt |c:ChawdharyCookGulwaniSagivYang-ESOP2008-random1d.c@285@F@main@max?1!0&0#1| #b00000000000000000000000000100111) #b1 #b0))))

(assert 

 (= |goto_symex::guard?0!0&0#80| 

  (bvnot 

   (ite 

    (bvslt |c:ChawdharyCookGulwaniSagivYang-ESOP2008-random1d.c@285@F@main@max?1!0&0#1| #b00000000000000000000000000101000) #b1 #b0))))

(assert 

 (= |goto_symex::guard?0!0&0#82| 

  (bvnot 

   (ite 

    (bvslt |c:ChawdharyCookGulwaniSagivYang-ESOP2008-random1d.c@285@F@main@max?1!0&0#1| #b00000000000000000000000000101001) #b1 #b0))))

(assert 

 (= |goto_symex::guard?0!0&0#84| 

  (bvnot 

   (ite 

    (bvslt |c:ChawdharyCookGulwaniSagivYang-ESOP2008-random1d.c@285@F@main@max?1!0&0#1| #b00000000000000000000000000101010) #b1 #b0))))

(assert 

 (= |goto_symex::guard?0!0&0#86| 

  (bvnot 

   (ite 

    (bvslt |c:ChawdharyCookGulwaniSagivYang-ESOP2008-random1d.c@285@F@main@max?1!0&0#1| #b00000000000000000000000000101011) #b1 #b0))))

(assert 

 (= |goto_symex::guard?0!0&0#88| 

  (bvnot 

   (ite 

    (bvslt |c:ChawdharyCookGulwaniSagivYang-ESOP2008-random1d.c@285@F@main@max?1!0&0#1| #b00000000000000000000000000101100) #b1 #b0))))

(assert 

 (= |goto_symex::guard?0!0&0#90| 

  (bvnot 

   (ite 

    (bvslt |c:ChawdharyCookGulwaniSagivYang-ESOP2008-random1d.c@285@F@main@max?1!0&0#1| #b00000000000000000000000000101101) #b1 #b0))))

(assert 

 (= |goto_symex::guard?0!0&0#92| 

  (bvnot 

   (ite 

    (bvslt |c:ChawdharyCookGulwaniSagivYang-ESOP2008-random1d.c@285@F@main@max?1!0&0#1| #b00000000000000000000000000101110) #b1 #b0))))

(assert 

 (= |goto_symex::guard?0!0&0#94| 

  (bvnot 

   (ite 

    (bvslt |c:ChawdharyCookGulwaniSagivYang-ESOP2008-random1d.c@285@F@main@max?1!0&0#1| #b00000000000000000000000000101111) #b1 #b0))))

(assert 

 (= |goto_symex::guard?0!0&0#96| 

  (bvnot 

   (ite 

    (bvslt |c:ChawdharyCookGulwaniSagivYang-ESOP2008-random1d.c@285@F@main@max?1!0&0#1| #b00000000000000000000000000110000) #b1 #b0))))

(assert 

 (= |goto_symex::guard?0!0&0#98| 

  (bvnot 

   (ite 

    (bvslt |c:ChawdharyCookGulwaniSagivYang-ESOP2008-random1d.c@285@F@main@max?1!0&0#1| #b00000000000000000000000000110001) #b1 #b0))))

(assert 

 (= |goto_symex::guard?0!0&0#100| 

  (bvnot 

   (ite 

    (bvslt |c:ChawdharyCookGulwaniSagivYang-ESOP2008-random1d.c@285@F@main@max?1!0&0#1| #b00000000000000000000000000110010) #b1 #b0))))

(assert 

 (= |goto_symex::guard?0!0&0#102| 

  (bvnot 

   (ite 

    (bvslt |c:ChawdharyCookGulwaniSagivYang-ESOP2008-random1d.c@285@F@main@max?1!0&0#1| #b00000000000000000000000000110011) #b1 #b0))))

(assert 

 (= |goto_symex::guard?0!0&0#104| 

  (bvnot 

   (ite 

    (bvslt |c:ChawdharyCookGulwaniSagivYang-ESOP2008-random1d.c@285@F@main@max?1!0&0#1| #b00000000000000000000000000110100) #b1 #b0))))

(assert 

 (= |goto_symex::guard?0!0&0#106| 

  (bvnot 

   (ite 

    (bvslt |c:ChawdharyCookGulwaniSagivYang-ESOP2008-random1d.c@285@F@main@max?1!0&0#1| #b00000000000000000000000000110101) #b1 #b0))))

(assert 

 (= |goto_symex::guard?0!0&0#108| 

  (bvnot 

   (ite 

    (bvslt |c:ChawdharyCookGulwaniSagivYang-ESOP2008-random1d.c@285@F@main@max?1!0&0#1| #b00000000000000000000000000110110) #b1 #b0))))

(assert 

 (= |goto_symex::guard?0!0&0#110| 

  (bvnot 

   (ite 

    (bvslt |c:ChawdharyCookGulwaniSagivYang-ESOP2008-random1d.c@285@F@main@max?1!0&0#1| #b00000000000000000000000000110111) #b1 #b0))))

(assert 

 (= |goto_symex::guard?0!0&0#112| 

  (bvnot 

   (ite 

    (bvslt |c:ChawdharyCookGulwaniSagivYang-ESOP2008-random1d.c@285@F@main@max?1!0&0#1| #b00000000000000000000000000111000) #b1 #b0))))

(assert 

 (= |goto_symex::guard?0!0&0#114| 

  (bvnot 

   (ite 

    (bvslt |c:ChawdharyCookGulwaniSagivYang-ESOP2008-random1d.c@285@F@main@max?1!0&0#1| #b00000000000000000000000000111001) #b1 #b0))))

(assert 

 (= |goto_symex::guard?0!0&0#116| 

  (bvnot 

   (ite 

    (bvslt |c:ChawdharyCookGulwaniSagivYang-ESOP2008-random1d.c@285@F@main@max?1!0&0#1| #b00000000000000000000000000111010) #b1 #b0))))

(assert 

 (= |goto_symex::guard?0!0&0#118| 

  (bvnot 

   (ite 

    (bvslt |c:ChawdharyCookGulwaniSagivYang-ESOP2008-random1d.c@285@F@main@max?1!0&0#1| #b00000000000000000000000000111011) #b1 #b0))))

(assert 

 (= |goto_symex::guard?0!0&0#120| 

  (bvnot 

   (ite 

    (bvslt |c:ChawdharyCookGulwaniSagivYang-ESOP2008-random1d.c@285@F@main@max?1!0&0#1| #b00000000000000000000000000111100) #b1 #b0))))

(assert 

 (= |goto_symex::guard?0!0&0#122| 

  (bvnot 

   (ite 

    (bvslt |c:ChawdharyCookGulwaniSagivYang-ESOP2008-random1d.c@285@F@main@max?1!0&0#1| #b00000000000000000000000000111101) #b1 #b0))))

(assert 

 (= |goto_symex::guard?0!0&0#124| 

  (bvnot 

   (ite 

    (bvslt |c:ChawdharyCookGulwaniSagivYang-ESOP2008-random1d.c@285@F@main@max?1!0&0#1| #b00000000000000000000000000111110) #b1 #b0))))

(assert 

 (= |goto_symex::guard?0!0&0#126| 

  (bvnot 

   (ite 

    (bvslt |c:ChawdharyCookGulwaniSagivYang-ESOP2008-random1d.c@285@F@main@max?1!0&0#1| #b00000000000000000000000000111111) #b1 #b0))))

(assert 

 (= |goto_symex::guard?0!0&0#128| 

  (bvnot 

   (ite 

    (bvslt |c:ChawdharyCookGulwaniSagivYang-ESOP2008-random1d.c@285@F@main@max?1!0&0#1| #b00000000000000000000000001000000) #b1 #b0))))

(assert 

 (= |goto_symex::guard?0!0&0#130| 

  (bvnot 

   (ite 

    (bvslt |c:ChawdharyCookGulwaniSagivYang-ESOP2008-random1d.c@285@F@main@max?1!0&0#1| #b00000000000000000000000001000001) #b1 #b0))))

(assert 

 (= |goto_symex::guard?0!0&0#132| 

  (bvnot 

   (ite 

    (bvslt |c:ChawdharyCookGulwaniSagivYang-ESOP2008-random1d.c@285@F@main@max?1!0&0#1| #b00000000000000000000000001000010) #b1 #b0))))

(assert 

 (= |goto_symex::guard?0!0&0#134| 

  (bvnot 

   (ite 

    (bvslt |c:ChawdharyCookGulwaniSagivYang-ESOP2008-random1d.c@285@F@main@max?1!0&0#1| #b00000000000000000000000001000011) #b1 #b0))))

(assert 

 (= |goto_symex::guard?0!0&0#136| 

  (bvnot 

   (ite 

    (bvslt |c:ChawdharyCookGulwaniSagivYang-ESOP2008-random1d.c@285@F@main@max?1!0&0#1| #b00000000000000000000000001000100) #b1 #b0))))

(assert 

 (= |goto_symex::guard?0!0&0#138| 

  (bvnot 

   (ite 

    (bvslt |c:ChawdharyCookGulwaniSagivYang-ESOP2008-random1d.c@285@F@main@max?1!0&0#1| #b00000000000000000000000001000101) #b1 #b0))))

(assert 

 (= |goto_symex::guard?0!0&0#140| 

  (bvnot 

   (ite 

    (bvslt |c:ChawdharyCookGulwaniSagivYang-ESOP2008-random1d.c@285@F@main@max?1!0&0#1| #b00000000000000000000000001000110) #b1 #b0))))

(assert 

 (= |goto_symex::guard?0!0&0#142| 

  (bvnot 

   (ite 

    (bvslt |c:ChawdharyCookGulwaniSagivYang-ESOP2008-random1d.c@285@F@main@max?1!0&0#1| #b00000000000000000000000001000111) #b1 #b0))))

(assert 

 (= |goto_symex::guard?0!0&0#144| 

  (bvnot 

   (ite 

    (bvslt |c:ChawdharyCookGulwaniSagivYang-ESOP2008-random1d.c@285@F@main@max?1!0&0#1| #b00000000000000000000000001001000) #b1 #b0))))

(assert 

 (= |goto_symex::guard?0!0&0#146| 

  (bvnot 

   (ite 

    (bvslt |c:ChawdharyCookGulwaniSagivYang-ESOP2008-random1d.c@285@F@main@max?1!0&0#1| #b00000000000000000000000001001001) #b1 #b0))))

(assert 

 (= |goto_symex::guard?0!0&0#148| 

  (bvnot 

   (ite 

    (bvslt |c:ChawdharyCookGulwaniSagivYang-ESOP2008-random1d.c@285@F@main@max?1!0&0#1| #b00000000000000000000000001001010) #b1 #b0))))

(assert 

 (= |goto_symex::guard?0!0&0#150| 

  (bvnot 

   (ite 

    (bvslt |c:ChawdharyCookGulwaniSagivYang-ESOP2008-random1d.c@285@F@main@max?1!0&0#1| #b00000000000000000000000001001011) #b1 #b0))))

(assert 

 (= |goto_symex::guard?0!0&0#152| 

  (bvnot 

   (ite 

    (bvslt |c:ChawdharyCookGulwaniSagivYang-ESOP2008-random1d.c@285@F@main@max?1!0&0#1| #b00000000000000000000000001001100) #b1 #b0))))

(assert 

 (= |goto_symex::guard?0!0&0#154| 

  (bvnot 

   (ite 

    (bvslt |c:ChawdharyCookGulwaniSagivYang-ESOP2008-random1d.c@285@F@main@max?1!0&0#1| #b00000000000000000000000001001101) #b1 #b0))))

(assert 

 (= |goto_symex::guard?0!0&0#156| 

  (bvnot 

   (ite 

    (bvslt |c:ChawdharyCookGulwaniSagivYang-ESOP2008-random1d.c@285@F@main@max?1!0&0#1| #b00000000000000000000000001001110) #b1 #b0))))

(assert 

 (= |goto_symex::guard?0!0&0#158| 

  (bvnot 

   (ite 

    (bvslt |c:ChawdharyCookGulwaniSagivYang-ESOP2008-random1d.c@285@F@main@max?1!0&0#1| #b00000000000000000000000001001111) #b1 #b0))))

(assert 

 (= |goto_symex::guard?0!0&0#160| 

  (bvnot 

   (ite 

    (bvslt |c:ChawdharyCookGulwaniSagivYang-ESOP2008-random1d.c@285@F@main@max?1!0&0#1| #b00000000000000000000000001010000) #b1 #b0))))

(assert 

 (= |goto_symex::guard?0!0&0#162| 

  (bvnot 

   (ite 

    (bvslt |c:ChawdharyCookGulwaniSagivYang-ESOP2008-random1d.c@285@F@main@max?1!0&0#1| #b00000000000000000000000001010001) #b1 #b0))))

(assert 

 (= |goto_symex::guard?0!0&0#164| 

  (bvnot 

   (ite 

    (bvslt |c:ChawdharyCookGulwaniSagivYang-ESOP2008-random1d.c@285@F@main@max?1!0&0#1| #b00000000000000000000000001010010) #b1 #b0))))

(assert 

 (= |goto_symex::guard?0!0&0#166| 

  (bvnot 

   (ite 

    (bvslt |c:ChawdharyCookGulwaniSagivYang-ESOP2008-random1d.c@285@F@main@max?1!0&0#1| #b00000000000000000000000001010011) #b1 #b0))))

(assert 

 (= |goto_symex::guard?0!0&0#168| 

  (bvnot 

   (ite 

    (bvslt |c:ChawdharyCookGulwaniSagivYang-ESOP2008-random1d.c@285@F@main@max?1!0&0#1| #b00000000000000000000000001010100) #b1 #b0))))

(assert 

 (= |goto_symex::guard?0!0&0#170| 

  (bvnot 

   (ite 

    (bvslt |c:ChawdharyCookGulwaniSagivYang-ESOP2008-random1d.c@285@F@main@max?1!0&0#1| #b00000000000000000000000001010101) #b1 #b0))))

(assert 

 (= |goto_symex::guard?0!0&0#172| 

  (bvnot 

   (ite 

    (bvslt |c:ChawdharyCookGulwaniSagivYang-ESOP2008-random1d.c@285@F@main@max?1!0&0#1| #b00000000000000000000000001010110) #b1 #b0))))

(assert 

 (= |goto_symex::guard?0!0&0#174| 

  (bvnot 

   (ite 

    (bvslt |c:ChawdharyCookGulwaniSagivYang-ESOP2008-random1d.c@285@F@main@max?1!0&0#1| #b00000000000000000000000001010111) #b1 #b0))))

(assert 

 (= |goto_symex::guard?0!0&0#176| 

  (bvnot 

   (ite 

    (bvslt |c:ChawdharyCookGulwaniSagivYang-ESOP2008-random1d.c@285@F@main@max?1!0&0#1| #b00000000000000000000000001011000) #b1 #b0))))

(assert 

 (= |goto_symex::guard?0!0&0#178| 

  (bvnot 

   (ite 

    (bvslt |c:ChawdharyCookGulwaniSagivYang-ESOP2008-random1d.c@285@F@main@max?1!0&0#1| #b00000000000000000000000001011001) #b1 #b0))))

(assert 

 (= |goto_symex::guard?0!0&0#180| 

  (bvnot 

   (ite 

    (bvslt |c:ChawdharyCookGulwaniSagivYang-ESOP2008-random1d.c@285@F@main@max?1!0&0#1| #b00000000000000000000000001011010) #b1 #b0))))

(assert 

 (= |goto_symex::guard?0!0&0#182| 

  (bvnot 

   (ite 

    (bvslt |c:ChawdharyCookGulwaniSagivYang-ESOP2008-random1d.c@285@F@main@max?1!0&0#1| #b00000000000000000000000001011011) #b1 #b0))))

(assert 

 (= |goto_symex::guard?0!0&0#184| 

  (bvnot 

   (ite 

    (bvslt |c:ChawdharyCookGulwaniSagivYang-ESOP2008-random1d.c@285@F@main@max?1!0&0#1| #b00000000000000000000000001011100) #b1 #b0))))

(assert 

 (= |goto_symex::guard?0!0&0#186| 

  (bvnot 

   (ite 

    (bvslt |c:ChawdharyCookGulwaniSagivYang-ESOP2008-random1d.c@285@F@main@max?1!0&0#1| #b00000000000000000000000001011101) #b1 #b0))))

(assert 

 (= |goto_symex::guard?0!0&0#188| 

  (bvnot 

   (ite 

    (bvslt |c:ChawdharyCookGulwaniSagivYang-ESOP2008-random1d.c@285@F@main@max?1!0&0#1| #b00000000000000000000000001011110) #b1 #b0))))

(assert 

 (= |goto_symex::guard?0!0&0#190| 

  (bvnot 

   (ite 

    (bvslt |c:ChawdharyCookGulwaniSagivYang-ESOP2008-random1d.c@285@F@main@max?1!0&0#1| #b00000000000000000000000001011111) #b1 #b0))))

(assert 

 (= |goto_symex::guard?0!0&0#192| 

  (bvnot 

   (ite 

    (bvslt |c:ChawdharyCookGulwaniSagivYang-ESOP2008-random1d.c@285@F@main@max?1!0&0#1| #b00000000000000000000000001100000) #b1 #b0))))

(assert 

 (= |goto_symex::guard?0!0&0#194| 

  (bvnot 

   (ite 

    (bvslt |c:ChawdharyCookGulwaniSagivYang-ESOP2008-random1d.c@285@F@main@max?1!0&0#1| #b00000000000000000000000001100001) #b1 #b0))))

(assert 

 (= |goto_symex::guard?0!0&0#196| 

  (bvnot 

   (ite 

    (bvslt |c:ChawdharyCookGulwaniSagivYang-ESOP2008-random1d.c@285@F@main@max?1!0&0#1| #b00000000000000000000000001100010) #b1 #b0))))

(assert 

 (= |goto_symex::guard?0!0&0#198| 

  (bvnot 

   (ite 

    (bvslt |c:ChawdharyCookGulwaniSagivYang-ESOP2008-random1d.c@285@F@main@max?1!0&0#1| #b00000000000000000000000001100011) #b1 #b0))))

(assert 

 (= |goto_symex::guard?0!0&0#200| 

  (bvnot 

   (ite 

    (bvslt |c:ChawdharyCookGulwaniSagivYang-ESOP2008-random1d.c@285@F@main@max?1!0&0#1| #b00000000000000000000000001100100) #b1 #b0))))

(assert 

 (= |goto_symex::guard?0!0&0#202| 

  (bvnot 

   (ite 

    (bvslt |c:ChawdharyCookGulwaniSagivYang-ESOP2008-random1d.c@285@F@main@max?1!0&0#1| #b00000000000000000000000001100101) #b1 #b0))))

(assert 

 (= |goto_symex::guard?0!0&0#204| 

  (bvnot 

   (ite 

    (bvslt |c:ChawdharyCookGulwaniSagivYang-ESOP2008-random1d.c@285@F@main@max?1!0&0#1| #b00000000000000000000000001100110) #b1 #b0))))

(assert 

 (= |goto_symex::guard?0!0&0#206| 

  (bvnot 

   (ite 

    (bvslt |c:ChawdharyCookGulwaniSagivYang-ESOP2008-random1d.c@285@F@main@max?1!0&0#1| #b00000000000000000000000001100111) #b1 #b0))))

(assert 

 (= |goto_symex::guard?0!0&0#208| 

  (bvnot 

   (ite 

    (bvslt |c:ChawdharyCookGulwaniSagivYang-ESOP2008-random1d.c@285@F@main@max?1!0&0#1| #b00000000000000000000000001101000) #b1 #b0))))

(assert 

 (= |goto_symex::guard?0!0&0#210| 

  (bvnot 

   (ite 

    (bvslt |c:ChawdharyCookGulwaniSagivYang-ESOP2008-random1d.c@285@F@main@max?1!0&0#1| #b00000000000000000000000001101001) #b1 #b0))))

(assert 

 (= |goto_symex::guard?0!0&0#212| 

  (bvnot 

   (ite 

    (bvslt |c:ChawdharyCookGulwaniSagivYang-ESOP2008-random1d.c@285@F@main@max?1!0&0#1| #b00000000000000000000000001101010) #b1 #b0))))

(assert (= |execution_statet::guard_exec?0!0| #b1))

(assert (= |goto_symex::guard?0!0&0#212| #b1))

(assert (= |goto_symex::guard?0!0&0#210| #b1))

(assert (= |goto_symex::guard?0!0&0#208| #b1))

(assert (= |goto_symex::guard?0!0&0#206| #b1))

(assert (= |goto_symex::guard?0!0&0#204| #b1))

(assert (= |goto_symex::guard?0!0&0#202| #b1))

(assert (= |goto_symex::guard?0!0&0#200| #b1))

(assert (= |goto_symex::guard?0!0&0#198| #b1))

(assert (= |goto_symex::guard?0!0&0#196| #b1))

(assert (= |goto_symex::guard?0!0&0#194| #b1))

(assert (= |goto_symex::guard?0!0&0#192| #b1))

(assert (= |goto_symex::guard?0!0&0#190| #b1))

(assert (= |goto_symex::guard?0!0&0#188| #b1))

(assert (= |goto_symex::guard?0!0&0#186| #b1))

(assert (= |goto_symex::guard?0!0&0#184| #b1))

(assert (= |goto_symex::guard?0!0&0#182| #b1))

(assert (= |goto_symex::guard?0!0&0#180| #b1))

(assert (= |goto_symex::guard?0!0&0#178| #b1))

(assert (= |goto_symex::guard?0!0&0#176| #b1))

(assert (= |goto_symex::guard?0!0&0#174| #b1))

(assert (= |goto_symex::guard?0!0&0#172| #b1))

(assert (= |goto_symex::guard?0!0&0#170| #b1))

(assert (= |goto_symex::guard?0!0&0#168| #b1))

(assert (= |goto_symex::guard?0!0&0#166| #b1))

(assert (= |goto_symex::guard?0!0&0#164| #b1))

(assert (= |goto_symex::guard?0!0&0#162| #b1))

(assert (= |goto_symex::guard?0!0&0#160| #b1))

(assert (= |goto_symex::guard?0!0&0#158| #b1))

(assert (= |goto_symex::guard?0!0&0#156| #b1))

(assert (= |goto_symex::guard?0!0&0#154| #b1))

(assert (= |goto_symex::guard?0!0&0#152| #b1))

(assert (= |goto_symex::guard?0!0&0#150| #b1))

(assert (= |goto_symex::guard?0!0&0#148| #b1))

(assert (= |goto_symex::guard?0!0&0#146| #b1))

(assert (= |goto_symex::guard?0!0&0#144| #b1))

(assert (= |goto_symex::guard?0!0&0#142| #b1))

(assert (= |goto_symex::guard?0!0&0#140| #b1))

(assert (= |goto_symex::guard?0!0&0#138| #b1))

(assert (= |goto_symex::guard?0!0&0#136| #b1))

(assert (= |goto_symex::guard?0!0&0#134| #b1))

(assert (= |goto_symex::guard?0!0&0#132| #b1))

(assert (= |goto_symex::guard?0!0&0#130| #b1))

(assert (= |goto_symex::guard?0!0&0#128| #b1))

(assert (= |goto_symex::guard?0!0&0#126| #b1))

(assert (= |goto_symex::guard?0!0&0#124| #b1))

(assert (= |goto_symex::guard?0!0&0#122| #b1))

(assert (= |goto_symex::guard?0!0&0#120| #b1))

(assert (= |goto_symex::guard?0!0&0#118| #b1))

(assert (= |goto_symex::guard?0!0&0#116| #b1))

(assert (= |goto_symex::guard?0!0&0#114| #b1))

(assert (= |goto_symex::guard?0!0&0#112| #b1))

(assert (= |goto_symex::guard?0!0&0#110| #b1))

(assert (= |goto_symex::guard?0!0&0#108| #b1))

(assert (= |goto_symex::guard?0!0&0#106| #b1))

(assert (= |goto_symex::guard?0!0&0#104| #b1))

(assert (= |goto_symex::guard?0!0&0#102| #b1))

(assert (= |goto_symex::guard?0!0&0#100| #b1))

(assert (= |goto_symex::guard?0!0&0#98| #b1))

(assert (= |goto_symex::guard?0!0&0#96| #b1))

(assert (= |goto_symex::guard?0!0&0#94| #b1))

(assert (= |goto_symex::guard?0!0&0#92| #b1))

(assert (= |goto_symex::guard?0!0&0#90| #b1))

(assert (= |goto_symex::guard?0!0&0#88| #b1))

(assert (= |goto_symex::guard?0!0&0#86| #b1))

(assert (= |goto_symex::guard?0!0&0#84| #b1))

(assert (= |goto_symex::guard?0!0&0#82| #b1))

(assert (= |goto_symex::guard?0!0&0#80| #b1))

(assert (= |goto_symex::guard?0!0&0#78| #b1))

(assert (= |goto_symex::guard?0!0&0#76| #b1))

(assert (= |goto_symex::guard?0!0&0#74| #b1))

(assert (= |goto_symex::guard?0!0&0#72| #b1))

(assert (= |goto_symex::guard?0!0&0#70| #b1))

(assert (= |goto_symex::guard?0!0&0#68| #b1))

(assert (= |goto_symex::guard?0!0&0#66| #b1))

(assert (= |goto_symex::guard?0!0&0#64| #b1))

(assert (= |goto_symex::guard?0!0&0#62| #b1))

(assert (= |goto_symex::guard?0!0&0#60| #b1))

(assert (= |goto_symex::guard?0!0&0#58| #b1))

(assert (= |goto_symex::guard?0!0&0#56| #b1))

(assert (= |goto_symex::guard?0!0&0#54| #b1))

(assert (= |goto_symex::guard?0!0&0#52| #b1))

(assert (= |goto_symex::guard?0!0&0#50| #b1))

(assert (= |goto_symex::guard?0!0&0#48| #b1))

(assert (= |goto_symex::guard?0!0&0#46| #b1))

(assert (= |goto_symex::guard?0!0&0#44| #b1))

(assert (= |goto_symex::guard?0!0&0#42| #b1))

(assert (= |goto_symex::guard?0!0&0#40| #b1))

(assert (= |goto_symex::guard?0!0&0#38| #b1))

(assert (= |goto_symex::guard?0!0&0#36| #b1))

(assert (= |goto_symex::guard?0!0&0#34| #b1))

(assert (= |goto_symex::guard?0!0&0#32| #b1))

(assert (= |goto_symex::guard?0!0&0#30| #b1))

(assert (= |goto_symex::guard?0!0&0#28| #b1))

(assert (= |goto_symex::guard?0!0&0#26| #b1))

(assert (= |goto_symex::guard?0!0&0#24| #b1))

(assert (= |goto_symex::guard?0!0&0#22| #b1))

(assert (= |goto_symex::guard?0!0&0#20| #b1))

(assert (= |goto_symex::guard?0!0&0#18| #b1))

(assert (= |goto_symex::guard?0!0&0#16| #b1))

(assert (= |goto_symex::guard?0!0&0#14| #b1))

(assert (= |goto_symex::guard?0!0&0#12| #b1))

(assert (= |goto_symex::guard?0!0&0#10| #b1))

(assert (= |goto_symex::guard?0!0&0#8| #b1))

(assert (= |goto_symex::guard?0!0&0#6| #b1))

(assert (= |goto_symex::guard?0!0&0#4| #b1))

(assert (= |goto_symex::guard?0!0&0#2| #b1))

(assert (= |goto_symex::guard?0!0&0#1| #b1))

(check-sat)

(exit)
